n = 8;
m = 8;

clue = [| 19,52,53,54,4,62,63,64
        | 20,0,0,0,0,0,0,1
        | 21,0,0,0,0,0,0,60
        | 41,0,0,0,0,0,0,59
        | 31,0,0,0,0,0,0,58
        | 32,0,0,0,0,0,0,9
        | 33,0,0,0,0,0,0,10
        | 35,34,37,28,27,26,11,12
        |];